c --- [ banner ] -------------------------------------------------------------
c 
c CaDiCaL Radically Simplified CDCL SAT Solver
c Copyright (c) 2016-2021 A. Biere, M. Fleury, N. Froleyks
c 
c Version 1.5.2 a5f15211db36c3956764e18194dd5bd63bf3b5e6
c g++ (GCC) 9.3.0 -Wall -Wextra -O3 -DNDEBUG
c Fri Oct 21 01:27:37 EDT 2022 Linux gra-login3 3.10.0-1160.66.1.el7.x86_64 x86_64
c 
c --- [ limit ] --------------------------------------------------------------
c 
c setting conflict limit to 200000 conflicts (due to '200000')
c 
c --- [ parsing input ] ------------------------------------------------------
c 
c reading DIMACS file from '33.cubes1566.adj'
c opening file to read '33.cubes1566.adj'
c found 'p cnf 6160 1595477' header
c parsed 1595477 clauses in 19.21 seconds process time
c closing file '33.cubes1566.adj'
c after reading 1457566790 bytes 1390.0 MB
c 
c --- [ options ] ------------------------------------------------------------
c 
c all options are set to their default value
c 
c --- [ solving ] ------------------------------------------------------------
c 
c time measured in process time since initialization
c 
c  seconds    reductions  redundant   irredundant
c          MB     restarts       trail       variables
c            level   conflicts       glue         remaining
c 
c * 19.21 1367  0 0   0    0    0  0% 0 1595422 2408 39%
c { 19.86 1405  0 0   0    0    0  0% 0 1595422 2408 39%
c i 20.06 1412 949 0   0   20   12 32% 2 1595422 2401 39%
c i 21.40 1470 715 0   2   35   25 32% 6 1595422 2394 39%
c i 22.59 1487 467 0   8   61   49 31% 12 1595422 2393 39%
c i 23.03 1489 383 0  10   75   58 30% 12 1595422 2392 39%
c i 23.26 1491 357 0  11   81   62 30% 13 1595422 2391 39%
c i 23.33 1491 349 0  11   83   62 30% 13 1595422 2389 39%
c i 23.49 1491 330 0  13   88   66 30% 14 1595422 2378 39%
c i 24.23 1495 260 0  19  114   88 30% 17 1595422 2377 39%
c i 25.23 1500 168 0  35  197  149 28% 23 1595422 2376 39%
c i 25.24 1500 167 0  35  199  150 28% 23 1595422 2375 39%
c i 25.27 1500 166 0  36  200  150 28% 23 1595422 2374 39%
c i 25.56 1504 161 0  38  210  159 28% 24 1595422 2373 39%
c i 25.90 1505 153 0  42  224  169 28% 24 1595422 2372 39%
c i 26.53 1505 145 0  55  270  210 28% 32 1595422 2371 38%
c - 30.52 1495 142 1  63  302  241 28% 35 310049 2371 38%
c i 30.71 1387 142 1  64  321  252 28% 37 310049 2370 38%
c i 30.90 1387 136 1  74  361  281 28% 39 310049 2369 38%
c i 31.12 1387 126 1  80  401  297 27% 37 310049 2368 38%
c 
c  seconds     reductions  redundant   irredundant
c          MB      restarts       trail       variables
c             level   conflicts       glue         remaining
c 
c i 31.17 1387 126 1  80  403  298 27% 37 310049 2367 38%
c i 31.30 1387 127 1  82  422  312 27% 38 310049 2366 38%
c i 31.57 1387 120 1  82  462  347 27% 37 310049 2365 38%
c i 31.94 1387 109 1  82  561  426 27% 37 310049 2364 38%
c i 32.00 1387 106 1  82  582  441 28% 36 310049 2363 38%
c i 32.03 1387 104 1  82  597  454 28% 36 310049 2362 38%
c i 32.08 1387 102 1  82  611  467 28% 35 310049 2361 38%
c i 32.10 1387 102 1  82  620  472 28% 35 310049 2360 38%
c i 32.16 1387 100 1  82  641  485 28% 35 310049 2359 38%
c i 32.20 1387 99 1  82  644  487 28% 35 310049 2358 38%
c i 32.21 1387 99 1  82  646  488 28% 35 310049 2357 38%
c i 32.21 1387 99 1  82  647  488 28% 34 310049 2356 38%
c i 32.30 1387 98 1  82  657  495 28% 34 310049 2355 38%
c i 32.31 1387 98 1  82  659  496 28% 34 310049 2354 38%
c i 32.42 1387 97 1  82  677  513 28% 34 310049 2353 38%
c i 32.52 1387 98 1  83  691  523 28% 35 310049 2352 38%
c i 32.93 1387 96 1  94  739  561 28% 35 310049 2351 38%
c i 33.31 1387 96 1  98  764  580 28% 36 310049 2350 38%
c i 33.33 1387 96 1  98  767  582 28% 36 310049 2349 38%
c i 33.35 1387 95 1  99  770  584 28% 36 310049 2348 38%
c 
c  seconds    reductions  redundant   irredundant
c          MB     restarts       trail       variables
c            level   conflicts       glue         remaining
c 
c i 33.37 1387 95 1 100  771  584 28% 35 310049 2347 38%
c i 33.44 1387 95 1 100  777  587 28% 35 310049 2346 38%
c i 33.45 1387 95 1 100  779  588 28% 35 310049 2345 38%
c i 33.45 1387 95 1 100  783  590 28% 35 310049 2344 38%
c i 33.47 1387 95 1 100  791  595 28% 35 310049 2343 38%
c i 33.47 1387 95 1 100  792  595 28% 35 310049 2342 38%
c i 33.48 1387 95 1 100  793  595 28% 35 310049 2341 38%
c i 33.48 1387 95 1 100  796  596 28% 35 310049 2339 38%
c i 33.70 1388 95 1 102  807  604 28% 36 310049 2338 38%
c i 33.84 1388 95 1 103  827  622 28% 36 310049 2337 38%
c i 33.89 1388 99 1 103  889  661 27% 34 310049 2335 38%
c i 34.07 1388 100 1 106  925  688 27% 35 310049 2334 38%
c i 34.07 1388 100 1 108  929  691 27% 35 310049 2333 38%
c i 34.07 1388 100 1 108  931  692 27% 35 310049 2332 38%
c i 34.16 1388 98 1 110  962  715 27% 35 310049 2331 38%
c i 34.19 1388 97 1 110  971  723 27% 35 310049 2330 38%
c } 34.45 1388 98 1 117 1001  749 27% 36 310049 2330 38%
c [ 34.45 1388  0 1 117 1001  749  0% 0 310049 2330 38%
c O 34.45 1388  3 1 117 1002  750 14% 3 310049 2330 38%
c i 34.73 1388 20 1 117 1034  770 25% 16 310049 2329 38%
c 
c  seconds    reductions  redundant   irredundant
c          MB     restarts       trail       variables
c            level   conflicts       glue         remaining
c 
c i 34.75 1388 20 1 117 1038  773 26% 16 310049 2328 38%
c i 34.87 1388 28 1 117 1093  812 30% 23 310049 2327 38%
c i 34.90 1388 28 1 117 1114  816 30% 24 310049 2326 38%
c i 34.92 1388 28 1 117 1124  825 30% 24 310049 2325 38%
c i 34.96 1388 31 1 117 1164  860 31% 26 310049 2324 38%
c i 34.96 1388 31 1 117 1168  863 31% 25 310049 2323 38%
c i 34.98 1388 30 1 117 1180  872 31% 25 310049 2322 38%
c - 35.61 1518 31 2 117 1198  763 31% 25 309911 2322 38%
c i 35.77 1518 30 2 117 1227  784 31% 25 309911 2321 38%
c i 35.77 1518 30 2 117 1229  784 31% 25 309911 2320 38%
c i 35.78 1518 30 2 117 1233  786 31% 25 309911 2319 38%
c i 35.92 1518 28 2 117 1332  870 32% 24 309911 2318 38%
c i 35.93 1518 28 2 117 1352  886 32% 23 309911 2317 38%
c i 35.99 1518 27 2 117 1451  964 32% 23 309911 2316 38%
c i 36.00 1518 26 2 117 1491  995 32% 23 309911 2315 38%
c i 36.23 1518 26 2 117 1825 1231 32% 22 309911 2314 38%
c i 36.24 1518 26 2 117 1826 1231 32% 22 309911 2313 38%
c i 36.30 1518 26 2 117 1889 1272 32% 22 309911 2312 38%
c - 37.18 1516 25 3 118 2540 1292 32% 22 309881 2312 38%
c i 37.59 1516 25 3 118 2598 1325 52% 22 309881 2311 38%
c 
c  seconds    reductions  redundant   irredundant
c          MB     restarts       trail       variables
c            level   conflicts       glue         remaining
c 
c i 37.88 1516 25 3 118 2840 1462 54% 22 309881 2310 38%
c i 37.89 1516 25 3 118 2849 1468 54% 22 309881 2309 37%
c i 37.89 1516 25 3 118 2851 1469 54% 22 309881 2308 37%
c ] 38.03 1516 26 3 118 3001 1574 55% 23 309881 2308 37%
c { 38.03 1516 98 3 118 3001 1574 72% 36 309881 2308 37%
c F 38.05 1516 98 3 119 3003 1575 72% 36 309881 2308 37%
c i 38.05 1516 98 3 119 3003 1575 72% 36 309881 2284 37%
c i 38.05 1516 98 3 119 3004 1575 72% 36 309881 2283 37%
c i 38.28 1516 95 3 122 3052 1612 71% 35 309881 2278 37%
c i 39.15 1516 60 3 122 4020 2355 59% 26 309881 2276 37%
c i 39.22 1516 59 3 122 4094 2409 58% 26 309881 2275 37%
c i 39.69 1516 58 3 128 4302 2583 57% 26 309881 2273 37%
c i 39.76 1516 58 3 130 4311 2591 57% 26 309881 2272 37%
c - 40.41 1510 59 4 135 4330 1903 57% 27 309224 2272 37%
c i 40.64 1510 60 4 143 4368 1933 57% 27 309224 2271 37%
c i 41.08 1510 63 4 166 4477 2028 56% 28 309224 2249 37%
c i 41.21 1510 63 4 172 4511 2056 56% 28 309224 2240 36%
c i 41.30 1510 63 4 175 4524 2068 56% 28 309224 2239 36%
c i 41.52 1510 65 4 183 4558 2100 56% 29 309224 2238 36%
c i 42.52 1510 67 4 217 4690 2222 55% 30 309224 2237 36%
c 
c  seconds    reductions  redundant   irredundant
c          MB     restarts       trail       variables
c            level   conflicts       glue         remaining
c 
c i 42.84 1510 67 4 234 4757 2278 55% 30 309224 2236 36%
c i 43.04 1510 68 4 240 4779 2297 55% 30 309224 2235 36%
c i 43.45 1509 69 4 252 4827 2339 54% 31 309224 2234 36%
c d 45.22 1509 71 4 283 5000 2488 54% 31 250866 2225 36%
c 3 45.39 1509 71 4 283 5000 3211 54% 31 250864 2224 36%
c 2 45.45 1509 71 4 283 5000 3271 54% 31 250854 2224 36%
c p 50.45 1509 71 4 283 5000 5668 54% 31 250854 2196 36%
c d 50.77 1509 71 4 283 5000 5514 54% 31 250773 2195 36%
c # 51.93 1509 60 4 291 6007 6238 52% 29 250773 2195 36%
c - 52.60 1389 55 5 291 6565 2664 52% 27 250773 2195 36%
c } 53.03 1389 52 5 291 7003 2923 51% 26 250773 2195 36%
c [ 53.03 1389 26 5 291 7003 2923 55% 23 250773 2195 36%
c - 54.89 1389 32 6 292 9083 3136 52% 26 250773 2195 36%
c I 55.78 1389 30 6 293 10011 3829 51% 25 250773 2195 36%
c - 57.25 1390 37 7 295 12025 3696 51% 31 250773 2195 36%
c p 60.35 1390 41 7 296 15002 9062 51% 34 250773 2195 36%
c ] 60.47 1390 41 7 296 15011 9068 51% 34 250773 2195 36%
c { 60.47 1390 52 7 296 15011 9068 51% 26 250773 2195 36%
c B 60.52 1390 52 7 296 15012 9069 51% 26 250773 2195 36%
c - 61.11 1390 51 8 301 15385 4171 51% 26 250773 2195 36%
c 
c  seconds    reductions   redundant   irredundant
c          MB     restarts        trail       variables
c            level    conflicts       glue         remaining
c 
c s 62.69 1390 39 8 304 18745 6389 51% 23 248904 2195 36%
c v 66.98 1389 39 8 304 18745 6389 51% 23 248899 2195 36%
c w 67.09 1389 39 8 304 18745 6385 51% 23 248899 2195 36%
c t 67.10 1389 39 8 304 18745 6369 51% 23 248894 2195 36%
c e 68.02 1391 39 8 304 18745 5877 51% 23 246048 744 12%
c s 68.13 1391 39 8 304 18745 5877 51% 23 245815 744 12%
c - 69.62 1392 38 9 304 19163 4342 77% 22 245815 744 12%
c W 70.61 1392 35 9 337 21013 5496 78% 21 245815 744 12%
c - 75.83 1392 37 10 606 23334 4994 76% 23 245815 744 12%
c - 82.66 1392 36 11 812 27923 5995 76% 23 245815 744 12%
c F 82.80 1392 36 11 812 28014 6069 76% 23 245815 744 12%
c p 88.24 1391 37 11 992 30003 9384 76% 23 245815 744 12%
c } 88.65 1392 36 11 992 31011 10208 77% 23 245815 744 12%
c [ 88.65 1392 41 11 992 31011 10208 159% 34 245815 744 12%
c - 89.33 1392 39 12 992 32930 6984 144% 32 245815 744 12%
c B 90.31 1392 35 12 995 36016 9244 128% 29 245815 744 12%
c - 91.41 1392 34 13 996 38353 7420 121% 28 245815 744 12%
c - 93.43 1392 32 14 999 44193 7469 109% 27 245815 744 12%
c W 94.92 1392 32 14 999 45017 8021 108% 27 245815 744 12%
c p 97.33 1392 32 14 1000 50003 13048 102% 27 245815 744 12%
c 
c  seconds    reductions     redundant    irredundant
c          MB      restarts         trail        variables
c            level      conflicts        glue        remaining
c 
c - 97.71 1392 32 15 1000 50450 8010 102% 27 245815 744 12%
c O 98.99 1392 31 15 1001 55018 10892 98% 27 245815 744 12%
c ] 99.04 1392 31 15 1001 55095 10959 98% 27 245815 744 12%
c 1 99.04 1392 31 15 1001 55095 10959 98% 27 245815 744 12%
c 
c --- [ writing output ] -----------------------------------------------------
c 
c writing simplified CNF to DIMACS file 'simp/33.cubes1566.adj.simp1'
c * 99.04 1392 31 15 1001 55095 10959 98% 27 245815 744 12%
c opening file to write 'simp/33.cubes1566.adj.simp1'
c writing 'p cnf 6160 245815' header
c closing file 'simp/33.cubes1566.adj.simp1'
c after writing 107302284 bytes 102.3 MB
c wrote 245815 clauses in 0.77 seconds process time
c 
c --- [ writing extension ] --------------------------------------------------
c 
c writing extension stack to 'simp/33.cubes1566.adj.ext1'
c opening file to write 'simp/33.cubes1566.adj.ext1'
c closing file 'simp/33.cubes1566.adj.ext1'
c after writing 92963 bytes 0.1 MB
c wrote 4111 witnesses in 0.00 seconds process time
c 
c --- [ result ] -------------------------------------------------------------
c 
s SATISFIABLE
c 
c --- [ run-time profiling ] -------------------------------------------------
c 
c process time taken by individual solving procedures
c (percentage relative to process time for solving)
c 
c        63.98   80.15% search
c        44.12   55.27% unstable
c        19.21   24.07% parse
c        17.85   22.35% stable
c        15.85   19.85% simplify
c         8.24   10.33% probe
c         4.37    5.48% vivify
c         1.74    2.18% elim
c         1.36    1.71% walk
c         0.65    0.81% lucky
c         0.21    0.27% subsume
c         0.15    0.19% ternary
c   =================================
c        79.83   79.98% solve
c 
c last line shows process time for solving
c (percentage relative to total process time)
c 
c --- [ statistics ] ---------------------------------------------------------
c 
c chronological:              9327        16.93 %  of conflicts
c conflicts:                 55095       690.15    per second
c decisions:                141634      1774.18    per second
c eliminated:                 1451        23.56 %  of all variables
c fixed:                       810        13.15 %  of all variables
c learned:                   54005        98.02 %  per conflict
c learned_lits:           11609440       100.00 %  learned literals
c minimized:                     0         0.00 %  learned literals
c shrunken:                6169463        53.14 %  learned literals
c minishrunken:            1178401        10.15 %  learned literals
c propagations:            4861268         0.06 M  per second
c reduced:                   27651        50.19 %  per conflict
c rephased:                     10      5509.50    interval
c restarts:                   1001        55.04    interval
c stabilizing:                   3        61.88 %  of conflicts
c substituted:                  11         0.18 %  of all variables
c subsumed:                  16995         0.49 %  of all clauses
c strengthened:               3900         0.11 %  of all clauses
c ternary:                    2161         0.59 %  of resolved
c vivified:                     18         0.00 %  of all clauses
c walked:                        2     27547.50    interval
c weakened:                   3301         3.03    average size
c 
c seconds are measured in process time for solving
c 
c --- [ resources ] ----------------------------------------------------------
c 
c total process time since initialization:        99.81    seconds
c total real time since initialization:          100.43    seconds
c maximum resident set size of process:         1646.62    MB
c 
c --- [ shutting down ] ------------------------------------------------------
c 
c exit 10
WARNING! DIMACS header mismatch: wrong number of variables.
============================[ Problem Statistics ]=============================
|                                                                             |
|  Number of variables:          3017                                         |
|  Number of clauses:          245817                                         |
|  Parse time:                   1.39 s                                       |
|  Simplification time:          0.05 s                                       |
|                                                                             |
============================[ Search Statistics ]====================================================
| Conflicts |          ORIGINAL         |          LEARNT          | Num Sols |      SUBGRAPHS      |
|           |    Vars  Clauses Literals |    Limit  Clauses Lit/Cl |          | Canonical Noncanon. |
=====================================================================================================
|       103 |    2924   245820 23237377 |     2000      103    112 |        0 |        19         3 |
|       963 |    2924   246530 23253817 |     2000      963     33 |        0 |       226       713 |
|      2044 |    2924   247386 23271828 |     3600     1044     17 |        0 |       593      1569 |
|      3390 |    2924   248395 23290165 |     3600     2390     21 |        0 |       856      2578 |
|      9673 |    2924   254172 23397563 |     6302     4375     18 |        0 |      1591      8355 |
|     12060 |    2924   255800 23429542 |     7558     3618     19 |        0 |      1929      9983 |
|     15887 |    2924   258488 23482191 |     7558     7445     28 |        0 |      2349     12671 |
|     20848 |    2924   261741 23547513 |     8782     8630     32 |        0 |      2845     15924 |
|     23798 |    2924   262129 23556012 |     9994     7192     48 |        0 |      2903     16312 |
|     34620 |    2924   269107 23676211 |    12406     7426     25 |        0 |      3891     23290 |
|     42577 |    2924   271298 23714973 |    13613     9190     29 |        0 |      4349     25481 |
|     58405 |    2924   278477 23843135 |    16008    10813     26 |        0 |      5906     32660 |
|     80654 |    2924   287752 24018025 |    18409    16463     58 |        0 |      7927     41935 |
|    101939 |    2924   289576 24057753 |    20819    18758     55 |        0 |      8416     43759 |
|    149194 |    2924   307639 24377025 |    25618    20812     49 |        0 |     12271     61822 |
|    221689 |    2924   336345 24843805 |    31615    23304     50 |        0 |     16621     90528 |
|    315520 |    2924   364492 25303566 |    37614    32134     41 |        0 |     23921    118675 |
|    460014 |    2924   410460 25986822 |    46011    32425     51 |        0 |     32598    164643 |
|    717202 |    2924   519859 27485654 |    58015    32617     23 |        0 |     51382    274042 |
|   1061919 |    2924   642893 29156922 |    70022    60341     44 |        0 |     72727    397076 |
|   1490464 |    2924   738913 30482616 |    83215    70879     34 |        0 |    101560    493096 |
=====================================================================================================
Number of solutions   : 0
Canonical subgraphs   : 125662         (26 /sec)
          order  3    : 1              (111111 /sec)
          order  4    : 1              (333333 /sec)
          order  5    : 1              (142857 /sec)
          order  6    : 1              (35714 /sec)
          order  7    : 1              (4926 /sec)
          order  8    : 2              (1010 /sec)
          order  9    : 7              (335 /sec)
          order 10    : 29             (107 /sec)
          order 11    : 143            (90 /sec)
          order 12    : 819            (65 /sec)
          order 13    : 5090           (65 /sec)
          order 14    : 26362          (52 /sec)
          order 15    : 35006          (31 /sec)
          order 16    : 30597          (21 /sec)
          order 17    : 16859          (18 /sec)
          order 18    : 8170           (17 /sec)
          order 19    : 2086           (17 /sec)
          order 20    : 307            (20 /sec)
          order 21    : 180            (24 /sec)
          order 22    : 0              (-nan /sec)
Noncanonical subgraphs: 715346         (284 /sec)
          order  3    : 0              (-nan /sec)
          order  4    : 0              (-nan /sec)
          order  5    : 0              (-nan /sec)
          order  6    : 0              (-nan /sec)
          order  7    : 0              (-nan /sec)
          order  8    : 0              (-nan /sec)
          order  9    : 0              (-nan /sec)
          order 10    : 0              (-nan /sec)
          order 11    : 0              (-nan /sec)
          order 12    : 0              (-nan /sec)
          order 13    : 23861          (2767 /sec)
          order 14    : 32142          (3016 /sec)
          order 15    : 573578         (284 /sec)
          order 16    : 68213          (193 /sec)
          order 17    : 17353          (143 /sec)
          order 18    : 6              (5660 /sec)
          order 19    : 4              (176 /sec)
          order 20    : 2              (26667 /sec)
          order 21    : 0              (-nan /sec)
Canonicity checking   : 4743.86 s
Noncanonicity checking: 2519.87 s
Total canonicity time : 7263.73 s
database reductions   : 77
restarts              : 3785
conflicts             : 1937147        (242 /sec)
decisions             : 3064833        (0.00 % random) (383 /sec)
propagations          : 81026378       (10135 /sec)
conflict literals     : 149594764      (54.99 % deleted)
actual reward         : 0.267108
Memory used           : 483.00 MB
CPU time              : 7995.05 s

UNSATISFIABLE
